5 5
2 23 0 46 4 69 3 30 1 40
4 82 0 70 2 69 3 42 1 18
0 59 2 13 4 84 3 21 1 68
2 77 0 82 3 77 4 77 1 61
0 99 1 38 4 40 3 27 2 58
-1
0 1 5
0 2 4 5
0 3 5
0 2 3 5
0 2 4 5
-2
25 331
203 289 449
195 364
226 328 463
179 243 406

511 9
10 20 16 1 6
21 14 4 19 9
0 11 15 7 24
13 17 3 23 8
12 5 22 2 18
